p cnf 412 698
-72 68 -13 76 0
-72 68 -13 -76 0
-72 20 75 77 0
-72 20 75 -77 0
-18 -59 40 78 0
-18 -59 40 -78 0
1 -40 20 79 0
1 -40 20 -79 0
52 -28 38 80 0
52 -28 38 -80 0
-59 43 6 81 0
-59 43 6 -81 0
-65 13 -51 82 0
-65 13 -51 -82 0
-4 26 57 83 0
-4 26 57 -83 0
4 12 -69 84 0
4 12 -69 -84 0
-25 9 -6 85 0
-25 9 -6 -85 0
1 11 19 86 0
1 11 19 -86 0
38 -72 -47 87 0
38 -72 -47 -87 0
-12 64 6 88 0
-12 64 6 -88 0
23 -35 -29 89 0
23 -35 -29 -89 0
-68 -8 69 90 0
-68 -8 69 -90 0
-50 70 31 91 0
-50 70 31 -91 0
-28 -39 34 92 0
-28 -39 34 -92 0
-55 -63 7 93 0
-55 -63 7 -93 0
1 4 -73 94 0
1 4 -73 -94 0
15 12 -63 95 0
15 12 -63 -95 0
-29 -60 -52 96 0
-29 -60 -52 -96 0
-21 6 -17 97 0
-21 6 -17 -97 0
72 -59 57 98 0
72 -59 57 -98 0
-41 -44 38 99 0
-41 -44 38 -99 0
13 70 -5 100 0
13 70 -5 -100 0
49 -65 38 101 0
49 -65 38 -101 0
53 -48 32 102 0
53 -48 32 -102 0
28 35 -6 103 0
28 35 -6 -103 0
72 -47 -8 104 0
72 -47 -8 -104 0
-51 57 -62 105 0
-51 57 -62 -105 0
41 51 56 106 0
41 51 56 -106 0
-18 60 -70 107 0
-18 60 -70 -107 0
73 -44 6 108 0
73 -44 6 -108 0
-46 71 56 109 0
-46 71 56 -109 0
45 -5 7 110 0
45 -5 7 -110 0
22 25 -59 111 0
22 25 -59 -111 0
25 45 -51 112 0
25 45 -51 -112 0
-65 16 35 113 0
-65 16 35 -113 0
-5 -65 -30 114 0
-5 -65 -30 -114 0
10 -12 -63 115 0
10 -12 -63 -115 0
25 -63 73 116 0
25 -63 73 -116 0
-75 15 70 117 0
-75 15 70 -117 0
42 23 -29 118 0
42 23 -29 -118 0
-36 23 37 119 0
-36 23 37 -119 0
49 18 -15 120 0
49 18 -15 -120 0
8 -59 45 121 0
8 -59 45 -121 0
30 -67 48 122 0
30 -67 48 -122 0
-37 9 -29 123 0
-37 9 -29 -123 0
-39 45 71 124 0
-39 45 71 -124 0
4 -8 -21 125 0
4 -8 -21 -125 0
-75 -52 39 126 0
-75 -52 39 -126 0
-3 12 -22 127 0
-3 12 -22 -127 0
57 -73 72 128 0
57 -73 72 -128 0
-58 27 51 129 0
-58 27 51 -129 0
57 -29 -18 130 0
57 -29 -18 -130 0
58 47 39 131 0
58 47 39 -131 0
-51 -17 -32 132 0
-51 -17 -32 -132 0
-62 -49 -65 133 0
-62 -49 -65 -133 0
-65 42 4 134 0
-65 42 4 -134 0
-50 2 59 135 0
-50 2 59 -135 0
55 62 2 136 0
55 62 2 -136 0
-38 -59 34 137 0
-38 -59 34 -137 0
-61 43 -75 138 0
-61 43 -75 -138 0
27 -15 -25 139 0
27 -15 -25 -139 0
-60 30 -47 140 0
-60 30 -47 -140 0
-73 2 -38 141 0
-73 2 -38 -141 0
-16 -57 29 142 0
-16 -57 29 -142 0
-75 36 52 143 0
-75 36 52 -143 0
57 -38 -17 144 0
57 -38 -17 -144 0
52 53 -25 145 0
52 53 -25 -145 0
75 18 -49 146 0
75 18 -49 -146 0
8 33 50 147 0
8 33 50 -147 0
45 7 -62 148 0
45 7 -62 -148 0
-24 -62 35 149 0
-24 -62 35 -149 0
-36 -45 5 150 0
-36 -45 5 -150 0
33 67 -43 151 0
33 67 -43 -151 0
-75 -36 18 152 0
-75 -36 18 -152 0
-75 -40 31 153 0
-75 -40 31 -153 0
58 -9 23 154 0
58 -9 23 -154 0
-45 -9 -60 155 0
-45 -9 -60 -155 0
-74 27 -44 156 0
-74 27 -44 -156 0
-26 33 32 157 0
-26 33 32 -157 0
-67 -6 -22 158 0
-67 -6 -22 -158 0
-50 61 6 159 0
-50 61 6 -159 0
37 43 -6 160 0
37 43 -6 -160 0
-10 64 26 161 0
-10 64 26 -161 0
-75 54 43 162 0
-75 54 43 -162 0
-66 -72 -56 163 0
-66 -72 -56 -163 0
33 -35 -44 164 0
33 -35 -44 -164 0
-61 -36 -71 165 0
-61 -36 -71 -165 0
-6 62 4 166 0
-6 62 4 -166 0
56 -62 4 167 0
56 -62 4 -167 0
57 37 -6 168 0
57 37 -6 -168 0
-75 52 14 169 0
-75 52 14 -169 0
33 -62 -42 170 0
33 -62 -42 -170 0
6 -65 26 171 0
6 -65 26 -171 0
-35 -26 -20 172 0
-35 -26 -20 -172 0
-48 -29 -28 173 0
-48 -29 -28 -173 0
-32 65 24 174 0
-32 65 24 -174 0
51 66 -12 175 0
51 66 -12 -175 0
57 24 59 176 0
57 24 59 -176 0
-41 68 54 177 0
-41 68 54 -177 0
51 -4 -55 178 0
51 -4 -55 -178 0
-50 -13 -36 179 0
-50 -13 -36 -179 0
23 -33 59 180 0
23 -33 59 -180 0
29 -32 -27 181 0
29 -32 -27 -181 0
41 -5 52 182 0
41 -5 52 -182 0
45 -41 -11 183 0
45 -41 -11 -183 0
70 18 -4 184 0
70 18 -4 -184 0
23 -38 -18 185 0
23 -38 -18 -185 0
10 25 -24 186 0
10 25 -24 -186 0
-20 3 -68 187 0
-20 3 -68 -187 0
4 66 -23 188 0
4 66 -23 -188 0
7 -11 9 189 0
7 -11 9 -189 0
71 -63 -62 190 0
71 -63 -62 -190 0
6 -4 -8 191 0
6 -4 -8 -191 0
17 -59 -47 192 0
17 -59 -47 -192 0
-68 -59 16 193 0
-68 -59 16 -193 0
5 -9 14 194 0
5 -9 14 -194 0
10 37 23 195 0
10 37 23 -195 0
-28 -36 -13 196 0
-28 -36 -13 -196 0
73 -59 29 197 0
73 -59 29 -197 0
75 22 4 198 0
75 22 4 -198 0
21 -24 -12 199 0
21 -24 -12 -199 0
71 -47 -22 200 0
71 -47 -22 -200 0
25 22 14 201 0
25 22 14 -201 0
-19 75 73 202 0
-19 75 73 -202 0
-68 7 58 203 0
-68 7 58 -203 0
74 42 -26 204 0
74 42 -26 -204 0
71 72 35 205 0
71 72 35 -205 0
71 41 -50 206 0
71 41 -50 -206 0
23 -22 -52 207 0
23 -22 -52 -207 0
56 -61 66 208 0
56 -61 66 -208 0
-39 -57 -55 209 0
-39 -57 -55 -209 0
53 62 -52 210 0
53 62 -52 -210 0
42 73 33 211 0
42 73 33 -211 0
-69 -30 -57 212 0
-69 -30 -57 -212 0
29 -30 36 213 0
29 -30 36 -213 0
32 -74 -12 214 0
32 -74 -12 -214 0
73 -51 44 215 0
73 -51 44 -215 0
-52 69 -68 216 0
-52 69 -68 -216 0
-14 -10 -31 217 0
-14 -10 -31 -217 0
18 20 5 218 0
18 20 5 -218 0
-41 36 -48 219 0
-41 36 -48 -219 0
-59 -1 -7 220 0
-59 -1 -7 -220 0
-46 31 -36 221 0
-46 31 -36 -221 0
-24 28 -75 222 0
-24 28 -75 -222 0
-40 -33 -3 223 0
-40 -33 -3 -223 0
-5 -8 75 224 0
-5 -8 75 -224 0
16 -53 25 225 0
16 -53 25 -225 0
65 -18 -35 226 0
65 -18 -35 -226 0
15 -5 1 227 0
15 -5 1 -227 0
73 -24 48 228 0
73 -24 48 -228 0
-40 -72 22 229 0
-40 -72 22 -229 0
64 65 -69 230 0
64 65 -69 -230 0
-18 1 58 231 0
-18 1 58 -231 0
25 -41 42 232 0
25 -41 42 -232 0
40 -53 -49 233 0
40 -53 -49 -233 0
-26 -18 37 234 0
-26 -18 37 -234 0
-64 -46 74 235 0
-64 -46 74 -235 0
22 -2 11 236 0
22 -2 11 -236 0
42 4 -2 237 0
42 4 -2 -237 0
33 69 -6 238 0
33 69 -6 -238 0
32 28 7 239 0
32 28 7 -239 0
-68 -55 15 240 0
-68 -55 15 -240 0
-71 42 -34 241 0
-71 42 -34 -241 0
-41 -24 -71 242 0
-41 -24 -71 -242 0
6 -45 9 243 0
6 -45 9 -243 0
-57 7 -47 244 0
-57 7 -47 -244 0
4 -3 -36 245 0
4 -3 -36 -245 0
42 -47 -41 246 0
42 -47 -41 -246 0
-71 -11 -8 247 0
-71 -11 -8 -247 0
-43 -64 30 248 0
-43 -64 30 -248 0
-71 -56 11 249 0
-71 -56 11 -249 0
-22 -47 -24 250 0
-22 -47 -24 -250 0
57 31 46 251 0
57 31 46 -251 0
7 27 28 252 0
7 27 28 -252 0
74 60 -1 253 0
74 60 -1 -253 0
-33 -32 56 254 0
-33 -32 56 -254 0
64 20 -71 255 0
64 20 -71 -255 0
-11 58 -16 256 0
-11 58 -16 -256 0
74 11 73 257 0
74 11 73 -257 0
-38 -25 75 258 0
-38 -25 75 -258 0
38 -10 -67 259 0
38 -10 -67 -259 0
-43 -41 10 260 0
-43 -41 10 -260 0
-23 -63 -69 261 0
-23 -63 -69 -261 0
-9 44 7 262 0
-9 44 7 -262 0
-32 58 -21 263 0
-32 58 -21 -263 0
-33 45 47 264 0
-33 45 47 -264 0
-19 -62 -46 265 0
-19 -62 -46 -265 0
-4 -27 -50 266 0
-4 -27 -50 -266 0
-50 40 56 267 0
-50 40 56 -267 0
2 -66 73 268 0
2 -66 73 -268 0
-2 18 49 269 0
-2 18 49 -269 0
-12 -10 55 270 0
-12 -10 55 -270 0
71 -75 -10 271 0
71 -75 -10 -271 0
-12 -36 -38 272 0
-12 -36 -38 -272 0
69 -61 50 273 0
69 -61 50 -273 0
-17 -64 9 274 0
-17 -64 9 -274 0
-74 -69 41 275 0
-74 -69 41 -275 0
14 58 24 276 0
14 58 24 -276 0
31 -46 43 277 0
31 -46 43 -277 0
15 -25 69 278 0
15 -25 69 -278 0
46 -60 -9 279 0
46 -60 -9 -279 0
35 36 6 280 0
35 36 6 -280 0
-27 5 -33 281 0
-27 5 -33 -281 0
55 54 -12 282 0
55 54 -12 -282 0
41 -16 -2 283 0
41 -16 -2 -283 0
-35 -16 57 284 0
-35 -16 57 -284 0
9 10 59 285 0
9 10 59 -285 0
-33 49 11 286 0
-33 49 11 -286 0
-32 3 13 287 0
-32 3 13 -287 0
20 65 -28 288 0
20 65 -28 -288 0
-18 60 -12 289 0
-18 60 -12 -289 0
22 -37 73 290 0
22 -37 73 -290 0
11 -7 69 291 0
11 -7 69 -291 0
-55 -27 -20 292 0
-55 -27 -20 -292 0
4 15 -34 293 0
4 15 -34 -293 0
-28 -52 -43 294 0
-28 -52 -43 -294 0
28 72 32 295 0
28 72 32 -295 0
-45 12 13 296 0
-45 12 13 -296 0
-56 12 36 297 0
-56 12 36 -297 0
44 -8 45 298 0
44 -8 45 -298 0
61 66 56 299 0
61 66 56 -299 0
-24 58 28 300 0
-24 58 28 -300 0
-63 52 -41 301 0
-63 52 -41 -301 0
-9 -70 10 302 0
-9 -70 10 -302 0
-74 -38 -20 303 0
-74 -38 -20 -303 0
47 -26 49 304 0
47 -26 49 -304 0
58 -3 -62 305 0
58 -3 -62 -305 0
-38 -45 3 306 0
-38 -45 3 -306 0
53 -54 11 307 0
53 -54 11 -307 0
-20 -11 43 308 0
-20 -11 43 -308 0
-34 -2 75 309 0
-34 -2 75 -309 0
-42 -57 -65 310 0
-42 -57 -65 -310 0
15 -10 28 311 0
15 -10 28 -311 0
18 -33 -66 312 0
18 -33 -66 -312 0
51 -74 50 313 0
51 -74 50 -313 0
-45 19 27 314 0
-45 19 27 -314 0
48 45 63 315 0
48 45 63 -315 0
-20 -36 37 316 0
-20 -36 37 -316 0
-60 71 49 317 0
-60 71 49 -317 0
-13 74 26 318 0
-13 74 26 -318 0
-12 62 29 319 0
-12 62 29 -319 0
44 -3 1 320 0
44 -3 1 -320 0
58 60 20 321 0
58 60 20 -321 0
-17 -31 10 322 0
-17 -31 10 -322 0
-4 -52 -62 323 0
-4 -52 -62 -323 0
-3 56 -25 324 0
-3 56 -25 -324 0
-10 -14 56 325 0
-10 -14 56 -325 0
-24 -39 60 326 0
-24 -39 60 -326 0
4 12 50 327 0
4 12 50 -327 0
49 -7 -5 328 0
49 -7 -5 -328 0
-31 -1 -54 329 0
-31 -1 -54 -329 0
35 51 -4 330 0
35 51 -4 -330 0
18 39 21 331 0
18 39 21 -331 0
-22 11 28 332 0
-22 11 28 -332 0
23 72 38 333 0
23 72 38 -333 0
26 -62 36 334 0
26 -62 36 -334 0
-69 2 -53 335 0
-69 2 -53 -335 0
55 35 -33 336 0
55 35 -33 -336 0
-17 -58 -50 337 0
-17 -58 -50 -337 0
1 68 -38 338 0
1 68 -38 -338 0
-54 -11 34 339 0
-54 -11 34 -339 0
-52 -55 14 340 0
-52 -55 14 -340 0
29 -32 40 341 0
29 -32 40 -341 0
46 51 -53 342 0
46 51 -53 -342 0
-16 -30 -42 343 0
-16 -30 -42 -343 0
51 36 -1 344 0
51 36 -1 -344 0
-46 -70 33 345 0
-46 -70 33 -345 0
66 72 -60 346 0
66 72 -60 -346 0
34 72 -29 347 0
34 72 -29 -347 0
60 28 -12 348 0
60 28 -12 -348 0
17 -57 -31 349 0
17 -57 -31 -349 0
70 37 43 350 0
70 37 43 -350 0
-56 -12 7 351 0
-56 -12 7 -351 0
-18 75 -30 352 0
-18 75 -30 -352 0
28 -69 40 353 0
28 -69 40 -353 0
-36 -55 -65 354 0
-36 -55 -65 -354 0
-47 8 6 355 0
-47 8 6 -355 0
55 39 -23 356 0
55 39 -23 -356 0
36 4 -10 357 0
36 4 -10 -357 0
-34 7 -45 358 0
-34 7 -45 -358 0
32 -62 -23 359 0
32 -62 -23 -359 0
-59 11 1 360 0
-59 11 1 -360 0
4 63 -67 361 0
4 63 -67 -361 0
6 -43 75 362 0
6 -43 75 -362 0
66 7 -20 363 0
66 7 -20 -363 0
3 -37 -32 364 0
3 -37 -32 -364 0
19 41 5 365 0
19 41 5 -365 0
-48 -33 1 366 0
-48 -33 1 -366 0
35 64 51 367 0
35 64 51 -367 0
-47 70 31 368 0
-47 70 31 -368 0
-36 -32 -71 369 0
-36 -32 -71 -369 0
-61 2 -19 370 0
-61 2 -19 -370 0
3 68 -5 371 0
3 68 -5 -371 0
-12 66 -52 372 0
-12 66 -52 -372 0
-10 -71 50 373 0
-10 -71 50 -373 0
-1 23 36 374 0
-1 23 36 -374 0
-50 -75 -20 375 0
-50 -75 -20 -375 0
-40 -68 -34 376 0
-40 -68 -34 -376 0
33 -8 56 377 0
33 -8 56 -377 0
-65 -5 -1 378 0
-65 -5 -1 -378 0
44 -45 10 379 0
44 -45 10 -379 0
-23 16 24 380 0
-23 16 24 -380 0
-8 47 6 381 0
-8 47 6 -381 0
30 -49 10 382 0
30 -49 10 -382 0
16 47 -9 383 0
16 47 -9 -383 0
4 -55 -24 384 0
4 -55 -24 -384 0
-38 -7 5 385 0
-38 -7 5 -385 0
74 55 60 386 0
74 55 60 -386 0
6 -50 49 387 0
6 -50 49 -387 0
20 1 3 388 0
20 1 3 -388 0
7 21 -69 389 0
7 21 -69 -389 0
19 -71 59 390 0
19 -71 59 -390 0
36 -55 12 391 0
36 -55 12 -391 0
-21 65 -7 392 0
-21 65 -7 -392 0
26 -25 68 393 0
26 -25 68 -393 0
42 60 -29 394 0
42 60 -29 -394 0
-14 -34 -59 395 0
-14 -34 -59 -395 0
-29 -18 19 396 0
-29 -18 19 -396 0
72 -59 -67 397 0
72 -59 -67 -397 0
-71 3 -22 398 0
-71 3 -22 -398 0
71 73 -59 399 0
71 73 -59 -399 0
-12 -47 32 400 0
-12 -47 32 -400 0
401 402 403 404 0
401 402 403 -404 0
401 402 -403 404 0
401 402 -403 -404 0
401 -402 403 404 0
401 -402 403 -404 0
401 -402 -403 404 0
401 -402 -403 -404 0
-401 402 403 404 0
-401 402 403 -404 0
-401 402 -403 404 0
-401 402 -403 -404 0
-401 -402 403 404 0
-401 -402 403 -404 0
-401 -402 -403 404 0
-401 -402 -403 -404 0
405 406 407 408 0
405 406 407 -408 0
405 406 -407 408 0
405 406 -407 -408 0
405 -406 407 408 0
405 -406 407 -408 0
405 -406 -407 408 0
405 -406 -407 -408 0
-405 406 407 408 0
-405 406 407 -408 0
-405 406 -407 408 0
-405 406 -407 -408 0
-405 -406 407 408 0
-405 -406 407 -408 0
-405 -406 -407 408 0
-405 -406 -407 -408 0
409 410 411 412 0
409 410 411 -412 0
409 410 -411 412 0
409 410 -411 -412 0
409 -410 411 412 0
409 -410 411 -412 0
409 -410 -411 412 0
409 -410 -411 -412 0
-409 410 411 412 0
-409 410 411 -412 0
-409 410 -411 412 0
-409 410 -411 -412 0
-409 -410 411 412 0
-409 -410 411 -412 0
-409 -410 -411 412 0
-409 -410 -411 -412 0
